short instances (for exacts)/A-n11-k4.vrp
NAME : A-n11-k4
COMMENT : (???)
TYPE : CVRP
DIMENSION : 11
EDGE_WEIGHT_TYPE : EUC_2D 
CAPACITY : 100
NODE_COORD_SECTION 
 1 73 39
 2 67 91
 3 39 21
 4 3 9
 5 97 15
 6 91 65
 7 55 75
 8 55 71
 9 57 85
 10 21 15
 11 47 57
DEMAND_SECTION 
1 0 
2 23 
3 3 
4 24 
5 15 
6 15 
7 24 
8 7 
9 25 
10 13 
11 5 
DEPOT_SECTION 
 1  
 -1  
EOF 
