solutions/A/A-n11-k4
6 2 9 7 8 11  (99)
3 10 4 5  (55)
Cost 345.164

